
Gurobi 6.5.2 (linux64) logging started Tue Sep 20 21:22:47 2016


Gurobi 6.5.2 (linux64) logging started Tue Sep 20 21:22:47 2016

Optimize a model with 201 rows, 2575 columns and 5525 nonzeros
Coefficient statistics:
  Matrix range    [1e+00, 2e+00]
  Objective range [1e+00, 1e+02]
  Bounds range    [1e+00, 1e+00]
  RHS range       [1e+00, 1e+00]
Presolve removed 59 rows and 4 columns
Presolve time: 0.01s
Presolved: 142 rows, 2571 columns, 5221 nonzeros
Variable types: 0 continuous, 2571 integer (2571 binary)

Root relaxation: objective 9.835000e+02, 145 iterations, 0.00 seconds

    Nodes    |    Current Node    |     Objective Bounds      |     Work
 Expl Unexpl |  Obj  Depth IntInf | Incumbent    BestBd   Gap | It/Node Time

     0     0  983.50000    0    8          -  983.50000      -     -    0s
     0     0  988.50000    0    6          -  988.50000      -     -    0s
     0     0  988.75000    0   10          -  988.75000      -     -    0s
     0     0  990.00000    0    8          -  990.00000      -     -    0s
     0     0  990.00000    0    8          -  990.00000      -     -    0s
     0     0  990.00000    0    4          -  990.00000      -     -    0s
     0     2  990.00000    0    4          -  990.00000      -     -    0s
H 1043   853                    5323.0000000  990.20000  81.4%   5.6    1s
  2899  1699 1493.50000  152   10 5323.00000  991.00000  81.4%   6.3    5s
* 3240  1758             200    1311.0000000  991.00000  24.4%   6.4    5s
  7244  4681     cutoff  199      1311.00000  992.00000  24.3%   5.7   10s

Cutting planes:
  Gomory: 5
  Cover: 3
  Zero half: 7
  Lazy constraints: 1157

Explored 7269 nodes (41628 simplex iterations) in 10.06 seconds
Thread count was 8 (of 8 available processors)

Time limit reached
Best objective 1.311000000000e+03, best bound 9.920000000000e+02, gap 24.3326%
